CLW04
Position Depot: Center
Horizon for Depot: Large
Position of customers: Cluster
Distribution of the demand: Medium
Width of time windows: Wide
Distribution of the service: Large

VEHICLE 
NUMBER 	 CAPACITY 
 16 	 	 110 
 
CUSTOMER
CUST NO. 	 XCOORD.  	 YCOORD. 	 DEMAND 	 READY TIME 	 DUE DATE 	 SERVICE TIME 
 0 	 	 500 	 	 500 	 	 0 	 	 0 	 	 3216 	 	 0 
  1 	 	 589 	 	 289 	 	 8 	 	 355 	 	 736 	 	 133 
  2 	 	 36 	 	 498 	 	 8 	 	 2796 	 	 3216 	 	 145 
  3 	 	 535 	 	 66 	 	 74 	 	 1967 	 	 2404 	 	 181 
  4 	 	 707 	 	 783 	 	 7 	 	 2585 	 	 2881 	 	 107 
  5 	 	 316 	 	 235 	 	 1 	 	 709 	 	 992 	 	 179 
  6 	 	 224 	 	 915 	 	 4 	 	 2175 	 	 2421 	 	 114 
  7 	 	 599 	 	 874 	 	 86 	 	 187 	 	 425 	 	 117 
  8 	 	 280 	 	 391 	 	 8 	 	 235 	 	 472 	 	 168 
  9 	 	 285 	 	 126 	 	 8 	 	 2556 	 	 2972 	 	 191 
  10 	 	 793 	 	 855 	 	 4 	 	 2943 	 	 3216 	 	 185 
  11 	 	 713 	 	 814 	 	 1 	 	 2294 	 	 2515 	 	 120 
  12 	 	 608 	 	 886 	 	 58 	 	 1361 	 	 1788 	 	 119 
  13 	 	 794 	 	 770 	 	 9 	 	 1592 	 	 1805 	 	 197 
  14 	 	 486 	 	 125 	 	 1 	 	 660 	 	 1150 	 	 134 
  15 	 	 241 	 	 952 	 	 10 	 	 2506 	 	 2956 	 	 154 
  16 	 	 169 	 	 906 	 	 75 	 	 1521 	 	 1884 	 	 138 
  17 	 	 518 	 	 55 	 	 87 	 	 813 	 	 1201 	 	 189 
  18 	 	 311 	 	 265 	 	 3 	 	 2713 	 	 3194 	 	 103 
  19 	 	 150 	 	 211 	 	 8 	 	 285 	 	 499 	 	 149 
  20 	 	 272 	 	 889 	 	 8 	 	 227 	 	 495 	 	 164 
  21 	 	 86 	 	 517 	 	 8 	 	 500 	 	 905 	 	 153 
  22 	 	 567 	 	 252 	 	 1 	 	 2588 	 	 2978 	 	 142 
  23 	 	 590 	 	 840 	 	 2 	 	 1066 	 	 1274 	 	 146 
  24 	 	 278 	 	 836 	 	 4 	 	 192 	 	 442 	 	 120 
  25 	 	 596 	 	 932 	 	 2 	 	 561 	 	 1046 	 	 188 
  26 	 	 631 	 	 976 	 	 2 	 	 1453 	 	 1953 	 	 189 
  27 	 	 518 	 	 46 	 	 9 	 	 664 	 	 1135 	 	 195 
  28 	 	 242 	 	 903 	 	 6 	 	 1537 	 	 1799 	 	 124 
  29 	 	 594 	 	 836 	 	 6 	 	 1226 	 	 1722 	 	 155 
  30 	 	 291 	 	 245 	 	 2 	 	 947 	 	 1182 	 	 134 
  31 	 	 77 	 	 757 	 	 4 	 	 1413 	 	 1750 	 	 129 
  32 	 	 23 	 	 521 	 	 2 	 	 2708 	 	 3058 	 	 148 
  33 	 	 638 	 	 254 	 	 4 	 	 1152 	 	 1474 	 	 196 
  34 	 	 471 	 	 104 	 	 6 	 	 2413 	 	 2714 	 	 126 
  35 	 	 49 	 	 460 	 	 2 	 	 704 	 	 1128 	 	 141 
  36 	 	 668 	 	 578 	 	 1 	 	 286 	 	 781 	 	 106 
  37 	 	 331 	 	 956 	 	 2 	 	 2256 	 	 2501 	 	 122 
  38 	 	 414 	 	 920 	 	 7 	 	 1414 	 	 1811 	 	 135 
  39 	 	 626 	 	 350 	 	 7 	 	 -185 	 	 235 	 	 106 
  40 	 	 63 	 	 942 	 	 8 	 	 782 	 	 998 	 	 183 
  41 	 	 556 	 	 320 	 	 6 	 	 2858 	 	 3216 	 	 146 
  42 	 	 428 	 	 99 	 	 4 	 	 2336 	 	 2599 	 	 159 
  43 	 	 250 	 	 904 	 	 10 	 	 464 	 	 851 	 	 165 
  44 	 	 236 	 	 934 	 	 9 	 	 1074 	 	 1452 	 	 197 
  45 	 	 707 	 	 756 	 	 10 	 	 -19 	 	 469 	 	 181 
  46 	 	 597 	 	 284 	 	 8 	 	 1307 	 	 1688 	 	 171 
  47 	 	 701 	 	 857 	 	 6 	 	 2745 	 	 2965 	 	 101 
  48 	 	 571 	 	 878 	 	 52 	 	 1952 	 	 2221 	 	 151 
  49 	 	 318 	 	 929 	 	 1 	 	 2785 	 	 3216 	 	 162 
  50 	 	 246 	 	 316 	 	 5 	 	 2659 	 	 3035 	 	 119 
  51 	 	 290 	 	 967 	 	 63 	 	 1308 	 	 1575 	 	 171 
  52 	 	 239 	 	 938 	 	 2 	 	 457 	 	 789 	 	 109 
  53 	 	 309 	 	 172 	 	 64 	 	 1907 	 	 2178 	 	 166 
  54 	 	 198 	 	 924 	 	 5 	 	 2877 	 	 3216 	 	 108 
  55 	 	 791 	 	 647 	 	 67 	 	 316 	 	 694 	 	 164 
  56 	 	 546 	 	 827 	 	 4 	 	 1399 	 	 1714 	 	 154 
  57 	 	 70 	 	 464 	 	 6 	 	 2262 	 	 2698 	 	 169 
  58 	 	 627 	 	 779 	 	 4 	 	 511 	 	 834 	 	 131 
  59 	 	 141 	 	 448 	 	 9 	 	 1725 	 	 2166 	 	 157 
  60 	 	 444 	 	 155 	 	 57 	 	 2863 	 	 3213 	 	 158 
  61 	 	 284 	 	 238 	 	 61 	 	 2280 	 	 2693 	 	 102 
  62 	 	 20 	 	 506 	 	 5 	 	 1755 	 	 1966 	 	 188 
  63 	 	 422 	 	 176 	 	 2 	 	 -18 	 	 366 	 	 162 
  64 	 	 148 	 	 991 	 	 2 	 	 1983 	 	 2459 	 	 152 
  65 	 	 597 	 	 936 	 	 2 	 	 2256 	 	 2686 	 	 136 
  66 	 	 547 	 	 961 	 	 2 	 	 1090 	 	 1438 	 	 127 
  67 	 	 646 	 	 915 	 	 6 	 	 2370 	 	 2868 	 	 127 
  68 	 	 336 	 	 192 	 	 7 	 	 1474 	 	 1839 	 	 187 
  69 	 	 96 	 	 495 	 	 3 	 	 791 	 	 1035 	 	 103 
  70 	 	 53 	 	 485 	 	 9 	 	 1880 	 	 2133 	 	 146 
  71 	 	 776 	 	 728 	 	 7 	 	 2251 	 	 2519 	 	 177 
  72 	 	 56 	 	 473 	 	 10 	 	 1319 	 	 1630 	 	 176 
  73 	 	 205 	 	 927 	 	 7 	 	 362 	 	 570 	 	 167 
  74 	 	 379 	 	 275 	 	 3 	 	 2772 	 	 3216 	 	 167 
  75 	 	 488 	 	 19 	 	 9 	 	 79 	 	 529 	 	 186 
  76 	 	 154 	 	 935 	 	 79 	 	 1799 	 	 2133 	 	 165 
  77 	 	 616 	 	 265 	 	 10 	 	 2134 	 	 2573 	 	 167 
  78 	 	 25 	 	 464 	 	 4 	 	 1321 	 	 1642 	 	 190 
  79 	 	 255 	 	 210 	 	 3 	 	 2744 	 	 3216 	 	 189 
  80 	 	 607 	 	 222 	 	 9 	 	 2000 	 	 2472 	 	 137 
  81 	 	 760 	 	 761 	 	 4 	 	 -75 	 	 405 	 	 181 
  82 	 	 747 	 	 798 	 	 96 	 	 1947 	 	 2163 	 	 183 
  83 	 	 583 	 	 278 	 	 8 	 	 1180 	 	 1508 	 	 121 
  84 	 	 537 	 	 85 	 	 83 	 	 911 	 	 1224 	 	 128 
  85 	 	 286 	 	 897 	 	 78 	 	 1380 	 	 1652 	 	 165 
  86 	 	 104 	 	 493 	 	 70 	 	 2147 	 	 2513 	 	 117 
  87 	 	 309 	 	 963 	 	 2 	 	 365 	 	 803 	 	 130 
  88 	 	 287 	 	 65 	 	 97 	 	 2141 	 	 2599 	 	 144 
  89 	 	 230 	 	 859 	 	 5 	 	 784 	 	 1243 	 	 163 
  90 	 	 299 	 	 200 	 	 58 	 	 985 	 	 1440 	 	 134 
  91 	 	 410 	 	 334 	 	 4 	 	 2729 	 	 3216 	 	 112 
  92 	 	 569 	 	 60 	 	 3 	 	 1538 	 	 2027 	 	 159 
  93 	 	 584 	 	 835 	 	 8 	 	 532 	 	 795 	 	 104 
  94 	 	 545 	 	 39 	 	 5 	 	 88 	 	 576 	 	 163 
  95 	 	 652 	 	 949 	 	 10 	 	 267 	 	 579 	 	 172 
  96 	 	 536 	 	 93 	 	 87 	 	 153 	 	 480 	 	 170 
  97 	 	 535 	 	 124 	 	 5 	 	 2498 	 	 2978 	 	 128 
  98 	 	 656 	 	 998 	 	 8 	 	 1980 	 	 2213 	 	 130 
  99 	 	 618 	 	 859 	 	 3 	 	 1925 	 	 2127 	 	 107 
  100 	 	 234 	 	 905 	 	 9 	 	 2620 	 	 3025 	 	 173 
 